\Problem name: 

Minimize
OBJROW: -2 var(0) -10 var(1) -8 var(2) -7 var(3) -10 var(4) -10 var(5) -6 var(6)
Subject To
constr(0):  5 var(0) + 7 var(1) + 8 var(2) + var(3) + 7 var(4) + 5 var(5) + 6 var(6) <= 20
constr(1):  var(0) + 6 var(1) + 4 var(2) + 9 var(3) + 10 var(4) + 6 var(5) + 10 var(6) <= 30
constr(2):  4 var(0) + 4 var(1) + 4 var(2) + var(3) + 5 var(4) + 5 var(5) + 10 var(6) <= 40
constr(3):  3 var(0) + 10 var(1) + 8 var(2) + var(3) + 3 var(4) + 3 var(5) + 8 var(6) <= 30
constr(4):  10 var(0) + 8 var(1) + 9 var(2) + 9 var(3) + 7 var(4) + 6 var(5) + 10 var(6) <= 20
constr(5):  6 var(0) + 6 var(1) + 3 var(2) + 6 var(3) + 3 var(4) + 7 var(5) + 2 var(6) <= 80
constr(6):  7 var(0) + 10 var(1) + 7 var(2) + 8 var(3) + 7 var(4) + 8 var(5) + 7 var(6) <= 100
constr(7):  9 var(0) + 8 var(1) + var(2) + var(3) + 8 var(4) + 10 var(5) + 2 var(6) <= 90
constr(8):  var(0) + 5 var(1) + 3 var(2) + 10 var(3) + 2 var(4) + 4 var(5) + 9 var(6) <= 70
constr(9):  9 var(0) + 6 var(1) + var(2) + 4 var(3) + 7 var(4) + 5 var(5) + 10 var(6) <= 60
constr(10):  5 var(0) + 7 var(1) + 4 var(2) + 4 var(3) + 3 var(4) + 4 var(5) + 10 var(6) <= 40
Bounds
End
